c uprop, v00.0, 
c reading from data/prog92.c.cnf
c done reading: 0.002885
p cnf 75 313
-24 -45 0
-27 -45 0
24 27 45 0
24 27 -50 0
-24 -27 -50 0
-24 27 50 0
24 -27 50 0
-33 45 0
-33 -34 0
33 34 -45 0
34 -39 -45 0
-34 -39 45 0
34 39 45 0
-34 39 -45 0
33 -43 0
-43 -46 0
-33 43 46 0
-33 46 -48 0
33 -46 -48 0
33 46 48 0
-33 -46 48 0
43 -49 0
-49 -51 0
-43 49 51 0
-26 -43 51 0
-26 43 -51 0
26 43 51 0
26 -43 -51 0
-23 49 0
-23 -30 0
23 30 -49 0
-22 30 -49 0
-22 -30 49 0
22 30 49 0
22 -30 -49 0
-21 23 0
-21 -37 0
21 -23 37 0
-20 -23 37 0
-20 23 -37 0
20 23 37 0
20 -23 -37 0
-18 21 0
-18 -41 0
18 -21 41 0
-17 -21 41 0
-17 21 -41 0
17 21 41 0
17 -21 -41 0
-15 34 0
-15 24 0
15 -24 -34 0
-14 -24 -34 0
-14 24 34 0
14 24 -34 0
14 -24 34 0
12 -27 -46 0
12 -15 -46 0
12 -15 -27 0
-12 27 46 0
-12 15 46 0
-12 15 27 0
-12 46 0
-12 27 0
-12 15 0
15 27 46 0
11 -34 -51 0
11 -12 -51 0
11 -12 -34 0
-11 34 51 0
-11 12 51 0
-11 12 34 0
-10 -11 51 0
-10 -11 34 0
-10 -11 12 0
10 11 -51 0
10 11 -34 0
10 11 -12 0
10 -12 -34 -51 0
-10 12 34 51 0
9 -30 -46 0
9 -11 -30 0
9 -11 -46 0
-9 30 46 0
-9 11 30 0
-9 11 46 0
-8 -9 30 0
-8 -9 46 0
-8 -9 11 0
8 9 -30 0
8 9 -46 0
8 9 -11 0
8 -11 -30 -46 0
-8 11 30 46 0
-37 -51 53 0
-9 -37 53 0
-9 -51 53 0
37 51 -53 0
9 37 -53 0
9 51 -53 0
37 -53 -55 0
51 -53 -55 0
9 -53 -55 0
-37 53 55 0
-51 53 55 0
-9 53 55 0
-9 -37 -51 55 0
9 37 51 -55 0
-30 -41 56 0
-41 -53 56 0
-30 -53 56 0
30 41 -56 0
41 53 -56 0
30 53 -56 0
41 -56 -58 0
30 -56 -58 0
53 -56 -58 0
-41 56 58 0
-30 56 58 0
-53 56 58 0
-30 -41 -53 58 0
30 41 53 -58 0
37 -59 0
56 -59 0
-37 -56 59 0
-25 -37 -56 0
-25 37 56 0
25 -37 56 0
25 37 -56 0
-28 41 0
-28 59 0
28 -41 -59 0
-35 -41 -59 0
-35 41 59 0
35 -41 59 0
35 41 -59 0
10 -47 0
24 -47 0
-10 -24 47 0
-10 -24 -52 0
10 24 -52 0
-10 24 52 0
10 -24 52 0
-8 -27 31 0
-8 31 -47 0
-27 31 -47 0
8 27 -31 0
8 -31 47 0
27 -31 47 0
8 -31 -38 0
27 -31 -38 0
-31 -38 47 0
-8 31 38 0
-27 31 38 0
31 38 -47 0
-8 -27 38 -47 0
8 27 -38 47 0
-34 42 -55 0
-31 42 -55 0
-31 -34 42 0
34 -42 55 0
31 -42 55 0
31 34 -42 0
-42 55 -60 0
34 -42 -60 0
31 -42 -60 0
42 -55 60 0
-34 42 60 0
-31 42 60 0
-31 -34 -55 60 0
31 34 55 -60 0
-46 -58 61 0
-42 -58 61 0
-42 -46 61 0
46 58 -61 0
42 58 -61 0
42 46 -61 0
-58 61 0
-46 61 0
-42 61 0
-42 -46 -58 0
-25 -51 63 0
-25 -61 63 0
-51 -61 63 0
25 51 -63 0
25 61 -63 0
51 61 -63 0
-25 63 0
-51 63 0
-61 63 0
-25 -51 -61 0
-30 -35 64 0
-35 -63 64 0
-30 -63 64 0
30 35 -64 0
35 63 -64 0
30 63 -64 0
-35 64 0
-30 64 0
-63 64 0
-30 -35 -63 0
-28 -37 65 0
-28 -64 65 0
-37 -64 65 0
28 37 -65 0
28 64 -65 0
37 64 -65 0
-28 65 0
-37 65 0
-64 65 0
-28 -37 -64 0
-41 -65 0
-41 65 0
41 -65 0
-24 -66 0
-27 -66 0
24 27 66 0
24 27 -67 0
-24 -27 -67 0
-24 27 67 0
24 -27 67 0
66 -68 0
-14 -68 0
14 -66 68 0
14 -66 -69 0
-14 66 -69 0
14 66 69 0
-14 -66 69 0
68 -70 0
-68 70 0
-52 -71 0
52 71 0
-38 -72 0
38 72 0
-60 -73 0
60 73 0
-19 -62 0
19 62 0
-16 -75 0
16 75 0
7 -62 0
-7 62 0
6 -75 0
-6 75 0
7 -29 0
-7 29 0
-7 -36 0
7 36 0
-6 40 -62 0
-6 -29 40 0
-29 40 -62 0
6 -40 62 0
6 29 -40 0
29 -40 62 0
-5 6 -40 0
-5 -40 62 0
-5 29 -40 0
5 -6 40 0
5 40 -62 0
5 -29 40 0
5 -6 -29 -62 0
-5 6 29 62 0
-40 -75 0
74 -75 0
-40 74 0
40 -74 75 0
-4 -62 0
4 62 0
-3 -75 0
3 75 0
-2 -36 0
2 36 0
-5 -44 0
5 44 0
-32 -74 0
32 74 0
-13 24 0
-13 62 0
13 -24 -62 0
-24 62 0
24 -62 0
1 -27 -75 0
1 -13 -27 0
1 -13 -75 0
-1 27 75 0
-1 13 27 0
-1 13 75 0
1 -27 0
1 -75 0
1 -13 0
-13 -27 -75 0
-1 -14 0
1 14 0
-36 -52 54 0
-52 54 0
-36 54 0
36 52 -54 0
52 -54 0
36 -54 0
-5 -38 57 0
-38 -54 57 0
-5 -54 57 0
5 38 -57 0
38 54 -57 0
5 54 -57 0
-38 57 0
-5 57 0
-54 57 0
-5 -38 -54 0
-60 -74 0
-57 -60 0
-57 -74 0
57 60 74 0
